Problem:    soluzione
Rows:       32
Columns:    31 (30 integer, 30 binary)
Non-zeros:  121
Status:     INTEGER OPTIMAL
Objective:  z = 907 (MAXimum)

   No.   Row name        Activity     Lower bound   Upper bound
------ ------------    ------------- ------------- -------------
     1 VolumeMassimo
                                 992                        1000 
     2 DefinizioneMassimaPenalita[1]
                                  59            -0               
     3 DefinizioneMassimaPenalita[2]
                                  34            -0               
     4 DefinizioneMassimaPenalita[3]
                                  93            -0               
     5 DefinizioneMassimaPenalita[4]
                                  59            -0               
     6 DefinizioneMassimaPenalita[5]
                                  53            -0               
     7 DefinizioneMassimaPenalita[6]
                                  64            -0               
     8 DefinizioneMassimaPenalita[7]
                                   9            -0               
     9 DefinizioneMassimaPenalita[8]
                                  93            -0               
    10 DefinizioneMassimaPenalita[9]
                                  93            -0               
    11 DefinizioneMassimaPenalita[10]
                                  45            -0               
    12 DefinizioneMassimaPenalita[11]
                                  40            -0               
    13 DefinizioneMassimaPenalita[12]
                                   8            -0               
    14 DefinizioneMassimaPenalita[13]
                                  56            -0               
    15 DefinizioneMassimaPenalita[14]
                                  93            -0               
    16 DefinizioneMassimaPenalita[15]
                                   8            -0               
    17 DefinizioneMassimaPenalita[16]
                                  56            -0               
    18 DefinizioneMassimaPenalita[17]
                                   3            -0               
    19 DefinizioneMassimaPenalita[18]
                                  36            -0               
    20 DefinizioneMassimaPenalita[19]
                                  31            -0               
    21 DefinizioneMassimaPenalita[20]
                                  59            -0               
    22 DefinizioneMassimaPenalita[21]
                                  18            -0               
    23 DefinizioneMassimaPenalita[22]
                                   5            -0               
    24 DefinizioneMassimaPenalita[23]
                                  93            -0               
    25 DefinizioneMassimaPenalita[24]
                                  18            -0               
    26 DefinizioneMassimaPenalita[25]
                                   0            -0               
    27 DefinizioneMassimaPenalita[26]
                                  93            -0               
    28 DefinizioneMassimaPenalita[27]
                                  54            -0               
    29 DefinizioneMassimaPenalita[28]
                                  35            -0               
    30 DefinizioneMassimaPenalita[29]
                                  56            -0               
    31 DefinizioneMassimaPenalita[30]
                                  87            -0               
    32 z                         907                             

   No. Column name       Activity     Lower bound   Upper bound
------ ------------    ------------- ------------- -------------
     1 Selezione[1] *              1             0             1 
     2 Selezione[2] *              1             0             1 
     3 Selezione[3] *              0             0             1 
     4 Selezione[4] *              1             0             1 
     5 Selezione[5] *              1             0             1 
     6 Selezione[6] *              1             0             1 
     7 Selezione[7] *              1             0             1 
     8 Selezione[8] *              0             0             1 
     9 Selezione[9] *              0             0             1 
    10 Selezione[10]
                    *              1             0             1 
    11 Selezione[11]
                    *              1             0             1 
    12 Selezione[12]
                    *              1             0             1 
    13 Selezione[13]
                    *              1             0             1 
    14 Selezione[14]
                    *              0             0             1 
    15 Selezione[15]
                    *              1             0             1 
    16 Selezione[16]
                    *              1             0             1 
    17 Selezione[17]
                    *              1             0             1 
    18 Selezione[18]
                    *              1             0             1 
    19 Selezione[19]
                    *              1             0             1 
    20 Selezione[20]
                    *              1             0             1 
    21 Selezione[21]
                    *              1             0             1 
    22 Selezione[22]
                    *              1             0             1 
    23 Selezione[23]
                    *              0             0             1 
    24 Selezione[24]
                    *              1             0             1 
    25 Selezione[25]
                    *              1             0             1 
    26 Selezione[26]
                    *              0             0             1 
    27 Selezione[27]
                    *              1             0             1 
    28 Selezione[28]
                    *              1             0             1 
    29 Selezione[29]
                    *              1             0             1 
    30 Selezione[30]
                    *              1             0             1 
    31 MassimaPenalita
                                  93             0               

Integer feasibility conditions:

KKT.PE: max.abs.err = 0.00e+000 on row 0
        max.rel.err = 0.00e+000 on row 0
        High quality

KKT.PB: max.abs.err = 0.00e+000 on row 0
        max.rel.err = 0.00e+000 on row 0
        High quality

End of output
